<instance format="XCSP3" type="CSP">
  <variables>
    <array id="x" size="[63]"> 0 1 </array>
  </variables>
  <constraints>
    <extension>
      <list> x[40..41] x[0] </list>
      <supports> (0,0,1)(0,1,0)(1,0,0)(1,1,1) </supports>
    </extension>
    <group>
      <extension>
        <list> %0 %1 %2 </list>
        <supports> (0,0,1)(0,1,0)(1,0,0)(1,1,1) </supports>
      </extension>
      <args> x[0] x[42] x[1] </args>
      <args> x[1] x[43] x[2] </args>
      <args> x[2] x[44] x[3] </args>
      <args> x[3] x[45] x[4] </args>
      <args> x[4] x[46] x[5] </args>
      <args> x[5] x[47] x[6] </args>
      <args> x[6] x[48] x[7] </args>
      <args> x[7] x[49] x[8] </args>
      <args> x[8] x[50] x[9] </args>
      <args> x[9] x[51] x[10] </args>
      <args> x[10] x[52] x[11] </args>
      <args> x[11] x[53] x[12] </args>
      <args> x[12] x[54] x[13] </args>
      <args> x[13] x[55] x[14] </args>
      <args> x[14] x[56] x[15] </args>
      <args> x[15] x[57] x[16] </args>
      <args> x[16] x[58] x[17] </args>
      <args> x[17] x[59] x[18] </args>
      <args> x[18] x[60] x[19] </args>
    </group>
    <group>
      <extension>
        <list> %0 %1 %2 </list>
        <supports> (0,0,1)(0,1,0)(1,0,0)(1,1,1) </supports>
      </extension>
      <args> x[19] x[61..62] </args>
      <args> x[20] x[61..62] </args>
    </group>
    <group>
      <extension>
        <list> %0 %1 %2 </list>
        <supports> (0,0,1)(0,1,0)(1,0,0)(1,1,1) </supports>
      </extension>
      <args> x[21] x[60] x[20] </args>
      <args> x[22] x[59] x[21] </args>
      <args> x[23] x[58] x[22] </args>
      <args> x[24] x[57] x[23] </args>
      <args> x[25] x[56] x[24] </args>
      <args> x[26] x[55] x[25] </args>
      <args> x[27] x[54] x[26] </args>
      <args> x[28] x[53] x[27] </args>
      <args> x[29] x[52] x[28] </args>
      <args> x[30] x[51] x[29] </args>
      <args> x[31] x[50] x[30] </args>
      <args> x[32] x[49] x[31] </args>
      <args> x[33] x[48] x[32] </args>
      <args> x[34] x[47] x[33] </args>
      <args> x[35] x[46] x[34] </args>
      <args> x[36] x[45] x[35] </args>
      <args> x[37] x[44] x[36] </args>
      <args> x[38] x[43] x[37] </args>
      <args> x[39] x[42] x[38] </args>
    </group>
    <extension>
      <list> x[40] x[41] x[39] </list>
      <supports> (0,0,0)(0,1,1)(1,0,1)(1,1,0) </supports>
    </extension>
  </constraints>
</instance>
